12
0 8 25 52 5 20 74 10 82 77 57 50 
21 0 41 75 55 69 85 34 87 51 80 60 
86 19 0 76 45 57 34 12 14 7 68 54 
34 81 75 0 46 38 80 44 79 65 25 6 
61 26 4 43 0 30 12 4 29 60 89 74 
74 95 50 35 44 0 63 27 99 81 53 40 
76 64 19 39 64 58 0 96 75 86 51 21 
24 42 28 100 84 95 83 0 83 49 4 78 
69 47 30 83 42 4 97 95 0 33 55 69 
77 25 74 47 37 85 8 59 78 0 17 6 
20 83 40 44 3 13 11 38 29 98 0 22 
59 56 20 69 5 74 45 86 54 11 5 0 
